NAME : gaussian_random137.8683.tour
COMMENT : Length = 8683
COMMENT : Found by LKH [Keld Helsgaun] Sun Jul  7 17:53:54 2024
TYPE : TOUR
DIMENSION : 137
TOUR_SECTION
1
8
40
39
126
92
45
121
18
125
132
30
124
127
82
75
23
113
85
93
123
119
22
74
53
36
32
9
60
77
122
13
25
101
130
81
11
96
88
129
87
120
15
135
6
108
72
44
133
100
102
26
49
69
65
91
47
110
71
79
55
28
59
48
46
62
134
103
86
31
70
136
76
114
43
99
128
89
109
20
50
16
117
12
107
98
38
131
61
78
66
5
116
57
4
105
19
27
95
24
7
51
42
97
58
84
112
17
21
35
64
137
118
90
63
83
106
3
10
73
41
54
67
111
14
37
115
94
52
33
29
104
56
68
2
80
34
-1
EOF
